<?xml version = "1.0" standalone="yes"?>
<!-- This file has been generated by DOcplex version 2.23.222  -->
<CPLEXSolution version="1.0">
 <header
   problemName="CVRP"
   objectiveValue="10238.6"
  />
 <variables>
  <variable name="x_0_1" index="0" value="1.00000"/>
  <variable name="x_0_2" index="1" value="1.00000"/>
  <variable name="x_0_4" index="3" value="1.00000"/>
  <variable name="x_0_7" index="6" value="1.00000"/>
  <variable name="x_0_10" index="9" value="1.00000"/>
  <variable name="x_0_12" index="11" value="1.00000"/>
  <variable name="x_1_0" index="12" value="1.00000"/>
  <variable name="x_2_8" index="31" value="1.00000"/>
  <variable name="x_3_0" index="36" value="1.00000"/>
  <variable name="x_4_5" index="52" value="1.00000"/>
  <variable name="x_5_0" index="60" value="1.00000"/>
  <variable name="x_6_0" index="72" value="1.00000"/>
  <variable name="x_7_3" index="87" value="1.00000"/>
  <variable name="x_8_11" index="106" value="1.00000"/>
  <variable name="x_9_0" index="108" value="1.00000"/>
  <variable name="x_10_9" index="129" value="1.00000"/>
  <variable name="x_11_0" index="132" value="1.00000"/>
  <variable name="x_12_6" index="150" value="1.00000"/>
  <variable name="u_1" index="156" value="59.00000"/>
  <variable name="u_2" index="157" value="7.00000"/>
  <variable name="u_3" index="158" value="73.00000"/>
  <variable name="u_4" index="159" value="48.00000"/>
  <variable name="u_5" index="160" value="73.00000"/>
  <variable name="u_6" index="161" value="73.00000"/>
  <variable name="u_7" index="162" value="48.00000"/>
  <variable name="u_8" index="163" value="34.00000"/>
  <variable name="u_9" index="164" value="73.00000"/>
  <variable name="u_10" index="165" value="41.00000"/>
  <variable name="u_11" index="166" value="49.00000"/>
  <variable name="u_12" index="167" value="20.00000"/>
 </variables>
</CPLEXSolution>
